\ENCODING=ISO-8859-1
\Problem name: SARP

Maximize
 obj: - 10 x(0,1,0) - 10 x(0,1,1) - 19 x(0,2,0) - 19 x(0,2,1) - 17 x(0,3,0)
      - 17 x(0,3,1) - 18 x(0,4,0) - 18 x(0,4,1) - 4 x(0,5,0) - 4 x(0,5,1)
      - 11 x(0,6,0) - 11 x(0,6,1) - 15 x(0,7,0) - 15 x(0,7,1) - 21 x(0,8,0)
      - 21 x(0,8,1) - 7 x(0,9,0) - 7 x(0,9,1) - 13 x(0,10,0) - 13 x(0,10,1)
      - 8 x(1,0,0) - 8 x(1,0,1) - 25 x(1,2,0) - 25 x(1,2,1) - 25 x(1,3,0)
      - 25 x(1,3,1) - 24 x(1,4,0) - 24 x(1,4,1) - 9 x(1,5,0) - 9 x(1,5,1)
      - 3 x(1,6,0) - 3 x(1,6,1) - 23 x(1,7,0) - 23 x(1,7,1) - 27 x(1,8,0)
      - 27 x(1,8,1) - 7 x(1,9,0) - 7 x(1,9,1) - 7 x(1,10,0) - 7 x(1,10,1)
      - 16 x(2,0,0) - 16 x(2,0,1) - 21 x(2,1,0) - 21 x(2,1,1) - 5 x(2,3,0)
      - 5 x(2,3,1) - 2 x(2,4,0) - 2 x(2,4,1) - 14 x(2,5,0) - 14 x(2,5,1)
      - 22 x(2,6,0) - 22 x(2,6,1) - 3 x(2,7,0) - 3 x(2,7,1) - 6 x(2,8,0)
      - 6 x(2,8,1) - 15 x(2,9,0) - 15 x(2,9,1) - 17 x(2,10,0) - 17 x(2,10,1)
      - 10 x(3,0,0) - 10 x(3,0,1) - 16 x(3,1,0) - 16 x(3,1,1) + 6 x(3,2,0)
      + 6 x(3,2,1) + 5 x(3,4,0) + 5 x(3,4,1) - 8 x(3,5,0) - 8 x(3,5,1)
      - 17 x(3,6,0) - 17 x(3,6,1) + 3 x(3,8,0) + 3 x(3,8,1) - 9 x(3,9,0)
      - 9 x(3,9,1) - 12 x(3,10,0) - 12 x(3,10,1) - 8 x(4,0,0) - 8 x(4,0,1)
      - 12 x(4,1,0) - 12 x(4,1,1) + 9 x(4,2,0) + 9 x(4,2,1) + 7 x(4,3,0)
      + 7 x(4,3,1) - 5 x(4,5,0) - 5 x(4,5,1) - 13 x(4,6,0) - 13 x(4,6,1)
      + 7 x(4,7,0) + 7 x(4,7,1) - 6 x(4,9,0) - 6 x(4,9,1) - 7 x(4,10,0)
      - 7 x(4,10,1) + 5 x(5,0,0) + 5 x(5,0,1) - x(5,1,0) - x(5,1,1)
      - 11 x(5,2,0) - 11 x(5,2,1) - 10 x(5,3,0) - 10 x(5,3,1) - 9 x(5,4,0)
      - 9 x(5,4,1) - 2 x(5,6,0) - 2 x(5,6,1) - 7 x(5,7,0) - 7 x(5,7,1)
      - 13 x(5,8,0) - 13 x(5,8,1) - 2 x(5,10,0) - 2 x(5,10,1) + 12 x(6,0,0)
      + 12 x(6,0,1) + 18 x(6,1,0) + 18 x(6,1,1) - 7 x(6,2,0) - 7 x(6,2,1)
      - 7 x(6,3,0) - 7 x(6,3,1) - 5 x(6,4,0) - 5 x(6,4,1) + 10 x(6,5,0)
      + 10 x(6,5,1) - 4 x(6,7,0) - 4 x(6,7,1) - 9 x(6,8,0) - 9 x(6,8,1)
      + 12 x(6,9,0) + 12 x(6,9,1) - 16 x(7,0,0) - 16 x(7,0,1) - 22 x(7,1,0)
      - 22 x(7,1,1) - 4 x(7,2,0) - 4 x(7,2,1) - 4 x(7,4,0) - 4 x(7,4,1)
      - 14 x(7,5,0) - 14 x(7,5,1) - 23 x(7,6,0) - 23 x(7,6,1) - 8 x(7,8,0)
      - 8 x(7,8,1) - 16 x(7,9,0) - 16 x(7,9,1) - 18 x(7,10,0) - 18 x(7,10,1)
      - 22 x(8,0,0) - 22 x(8,0,1) - 26 x(8,1,0) - 26 x(8,1,1) - 4 x(8,2,0)
      - 4 x(8,2,1) - 6 x(8,3,0) - 6 x(8,3,1) - 20 x(8,5,0) - 20 x(8,5,1)
      - 28 x(8,6,0) - 28 x(8,6,1) - 8 x(8,7,0) - 8 x(8,7,1) - 20 x(8,9,0)
      - 20 x(8,9,1) - 21 x(8,10,0) - 21 x(8,10,1) - 3 x(9,0,0) - 3 x(9,0,1)
      - 6 x(9,1,0) - 6 x(9,1,1) - 19 x(9,2,0) - 19 x(9,2,1) - 18 x(9,3,0)
      - 18 x(9,3,1) - 17 x(9,4,0) - 17 x(9,4,1) - 7 x(9,6,0) - 7 x(9,6,1)
      - 16 x(9,7,0) - 16 x(9,7,1) - 20 x(9,8,0) - 20 x(9,8,1) - 6 x(9,10,0)
      - 6 x(9,10,1) - 9 x(10,0,0) - 9 x(10,0,1) - 8 x(10,1,0) - 8 x(10,1,1)
      - 20 x(10,2,0) - 20 x(10,2,1) - 21 x(10,3,0) - 21 x(10,3,1)
      - 18 x(10,4,0) - 18 x(10,4,1) - 9 x(10,5,0) - 9 x(10,5,1) - 18 x(10,7,0)
      - 18 x(10,7,1) - 21 x(10,8,0) - 21 x(10,8,1) - 6 x(10,9,0) - 6 x(10,9,1)
      - 6 x(11,0,0) - 6 x(11,0,1) - 2 x(11,1,0) - 2 x(11,1,1) - 26 x(11,2,0)
      - 26 x(11,2,1) - 25 x(11,3,0) - 25 x(11,3,1) - 24 x(11,4,0)
      - 24 x(11,4,1) - 8 x(11,5,0) - 8 x(11,5,1) - 2 x(11,6,0) - 2 x(11,6,1)
      - 23 x(12,0,0) - 23 x(12,0,1) - 28 x(12,1,0) - 28 x(12,1,1) - 5 x(12,2,0)
      - 5 x(12,2,1) - 4 x(12,3,0) - 4 x(12,3,1) - 7 x(12,4,0) - 7 x(12,4,1)
      - 21 x(12,5,0) - 21 x(12,5,1) - 29 x(12,6,0) - 29 x(12,6,1) + 0 w(0)
      + 0 w(1) + 0 w(2) + 0 w(3) + 0 w(4) + 0 w(5) + 0 w(6) + 0 w(7) + 0 w(8)
      + 0 w(9) + 0 w(10) + 0 w(11) + 0 w(12) + 0 w(13)
Subject To
 Constraint1_0:    x(0,1,0) + x(0,1,1) + x(0,2,0) + x(0,2,1) + x(0,3,0)
                   + x(0,3,1) + x(0,4,0) + x(0,4,1) + x(0,5,0) + x(0,5,1)
                   + x(0,6,0) + x(0,6,1) + x(0,7,0) + x(0,7,1) + x(0,8,0)
                   + x(0,8,1) + x(0,9,0) + x(0,9,1) + x(0,10,0) + x(0,10,1)
                   + x(0,13,0) + x(0,13,1) - y(0,0) - y(0,1)  = 0
 Constraint1_1:    x(1,0,0) + x(1,0,1) + x(1,2,0) + x(1,2,1) + x(1,3,0)
                   + x(1,3,1) + x(1,4,0) + x(1,4,1) + x(1,5,0) + x(1,5,1)
                   + x(1,6,0) + x(1,6,1) + x(1,7,0) + x(1,7,1) + x(1,8,0)
                   + x(1,8,1) + x(1,9,0) + x(1,9,1) + x(1,10,0) + x(1,10,1)
                   + x(1,13,0) + x(1,13,1) - y(1,0) - y(1,1)  = 0
 Constraint1_2:    x(2,0,0) + x(2,0,1) + x(2,1,0) + x(2,1,1) + x(2,3,0)
                   + x(2,3,1) + x(2,4,0) + x(2,4,1) + x(2,5,0) + x(2,5,1)
                   + x(2,6,0) + x(2,6,1) + x(2,7,0) + x(2,7,1) + x(2,8,0)
                   + x(2,8,1) + x(2,9,0) + x(2,9,1) + x(2,10,0) + x(2,10,1)
                   + x(2,13,0) + x(2,13,1) - y(2,0) - y(2,1)  = 0
 Constraint1_3:    x(3,0,0) + x(3,0,1) + x(3,1,0) + x(3,1,1) + x(3,2,0)
                   + x(3,2,1) + x(3,4,0) + x(3,4,1) + x(3,5,0) + x(3,5,1)
                   + x(3,6,0) + x(3,6,1) + x(3,8,0) + x(3,8,1) + x(3,9,0)
                   + x(3,9,1) + x(3,10,0) + x(3,10,1) - y(3,0) - y(3,1)  = 0
 Constraint1_4:    x(4,0,0) + x(4,0,1) + x(4,1,0) + x(4,1,1) + x(4,2,0)
                   + x(4,2,1) + x(4,3,0) + x(4,3,1) + x(4,5,0) + x(4,5,1)
                   + x(4,6,0) + x(4,6,1) + x(4,7,0) + x(4,7,1) + x(4,9,0)
                   + x(4,9,1) + x(4,10,0) + x(4,10,1) - y(4,0) - y(4,1)  = 0
 Constraint1_5:    x(5,0,0) + x(5,0,1) + x(5,1,0) + x(5,1,1) + x(5,2,0)
                   + x(5,2,1) + x(5,3,0) + x(5,3,1) + x(5,4,0) + x(5,4,1)
                   + x(5,6,0) + x(5,6,1) + x(5,7,0) + x(5,7,1) + x(5,8,0)
                   + x(5,8,1) + x(5,10,0) + x(5,10,1) - y(5,0) - y(5,1)  = 0
 Constraint1_6:    x(6,0,0) + x(6,0,1) + x(6,1,0) + x(6,1,1) + x(6,2,0)
                   + x(6,2,1) + x(6,3,0) + x(6,3,1) + x(6,4,0) + x(6,4,1)
                   + x(6,5,0) + x(6,5,1) + x(6,7,0) + x(6,7,1) + x(6,8,0)
                   + x(6,8,1) + x(6,9,0) + x(6,9,1) - y(6,0) - y(6,1)  = 0
 Constraint1_7:    x(7,0,0) + x(7,0,1) + x(7,1,0) + x(7,1,1) + x(7,2,0)
                   + x(7,2,1) + x(7,4,0) + x(7,4,1) + x(7,5,0) + x(7,5,1)
                   + x(7,6,0) + x(7,6,1) + x(7,8,0) + x(7,8,1) + x(7,9,0)
                   + x(7,9,1) + x(7,10,0) + x(7,10,1) + x(7,13,0) + x(7,13,1)
                   - y(7,0) - y(7,1)  = 0
 Constraint1_8:    x(8,0,0) + x(8,0,1) + x(8,1,0) + x(8,1,1) + x(8,2,0)
                   + x(8,2,1) + x(8,3,0) + x(8,3,1) + x(8,5,0) + x(8,5,1)
                   + x(8,6,0) + x(8,6,1) + x(8,7,0) + x(8,7,1) + x(8,9,0)
                   + x(8,9,1) + x(8,10,0) + x(8,10,1) + x(8,13,0) + x(8,13,1)
                   - y(8,0) - y(8,1)  = 0
 Constraint1_9:    x(9,0,0) + x(9,0,1) + x(9,1,0) + x(9,1,1) + x(9,2,0)
                   + x(9,2,1) + x(9,3,0) + x(9,3,1) + x(9,4,0) + x(9,4,1)
                   + x(9,6,0) + x(9,6,1) + x(9,7,0) + x(9,7,1) + x(9,8,0)
                   + x(9,8,1) + x(9,10,0) + x(9,10,1) + x(9,13,0) + x(9,13,1)
                   - y(9,0) - y(9,1)  = 0
 Constraint1_10:   x(10,0,0) + x(10,0,1) + x(10,1,0) + x(10,1,1) + x(10,2,0)
                   + x(10,2,1) + x(10,3,0) + x(10,3,1) + x(10,4,0) + x(10,4,1)
                   + x(10,5,0) + x(10,5,1) + x(10,7,0) + x(10,7,1) + x(10,8,0)
                   + x(10,8,1) + x(10,9,0) + x(10,9,1) + x(10,13,0)
                   + x(10,13,1) - y(10,0) - y(10,1)  = 0
 Constraint2_0:    y(0,0) + y(0,1)  = 1
 Constraint2_1:    y(1,0) + y(1,1)  = 1
 Constraint2_2:    y(2,0) + y(2,1)  = 1
 Constraint3_3:    y(3,0) + y(3,1) <= 1
 Constraint3_4:    y(4,0) + y(4,1) <= 1
 Constraint3_5:    y(5,0) + y(5,1) <= 1
 Constraint3_6:    y(6,0) + y(6,1) <= 1
 Constraint4_3_0:  x(3,0,0) + x(3,1,0) + x(3,2,0) + x(3,4,0) + x(3,5,0)
                   + x(3,6,0) + x(3,8,0) + x(3,9,0) + x(3,10,0) - x(7,0,0)
                   - x(7,1,0) - x(7,2,0) - x(7,4,0) - x(7,5,0) - x(7,6,0)
                   - x(7,8,0) - x(7,9,0) - x(7,10,0) - x(7,13,0)  = 0
 Constraint4_3_1:  x(3,0,1) + x(3,1,1) + x(3,2,1) + x(3,4,1) + x(3,5,1)
                   + x(3,6,1) + x(3,8,1) + x(3,9,1) + x(3,10,1) - x(7,0,1)
                   - x(7,1,1) - x(7,2,1) - x(7,4,1) - x(7,5,1) - x(7,6,1)
                   - x(7,8,1) - x(7,9,1) - x(7,10,1) - x(7,13,1)  = 0
 Constraint4_4_0:  x(4,0,0) + x(4,1,0) + x(4,2,0) + x(4,3,0) + x(4,5,0)
                   + x(4,6,0) + x(4,7,0) + x(4,9,0) + x(4,10,0) - x(8,0,0)
                   - x(8,1,0) - x(8,2,0) - x(8,3,0) - x(8,5,0) - x(8,6,0)
                   - x(8,7,0) - x(8,9,0) - x(8,10,0) - x(8,13,0)  = 0
 Constraint4_4_1:  x(4,0,1) + x(4,1,1) + x(4,2,1) + x(4,3,1) + x(4,5,1)
                   + x(4,6,1) + x(4,7,1) + x(4,9,1) + x(4,10,1) - x(8,0,1)
                   - x(8,1,1) - x(8,2,1) - x(8,3,1) - x(8,5,1) - x(8,6,1)
                   - x(8,7,1) - x(8,9,1) - x(8,10,1) - x(8,13,1)  = 0
 Constraint4_5_0:  x(5,0,0) + x(5,1,0) + x(5,2,0) + x(5,3,0) + x(5,4,0)
                   + x(5,6,0) + x(5,7,0) + x(5,8,0) + x(5,10,0) - x(9,0,0)
                   - x(9,1,0) - x(9,2,0) - x(9,3,0) - x(9,4,0) - x(9,6,0)
                   - x(9,7,0) - x(9,8,0) - x(9,10,0) - x(9,13,0)  = 0
 Constraint4_5_1:  x(5,0,1) + x(5,1,1) + x(5,2,1) + x(5,3,1) + x(5,4,1)
                   + x(5,6,1) + x(5,7,1) + x(5,8,1) + x(5,10,1) - x(9,0,1)
                   - x(9,1,1) - x(9,2,1) - x(9,3,1) - x(9,4,1) - x(9,6,1)
                   - x(9,7,1) - x(9,8,1) - x(9,10,1) - x(9,13,1)  = 0
 Constraint4_6_0:  x(6,0,0) + x(6,1,0) + x(6,2,0) + x(6,3,0) + x(6,4,0)
                   + x(6,5,0) + x(6,7,0) + x(6,8,0) + x(6,9,0) - x(10,0,0)
                   - x(10,1,0) - x(10,2,0) - x(10,3,0) - x(10,4,0) - x(10,5,0)
                   - x(10,7,0) - x(10,8,0) - x(10,9,0) - x(10,13,0)  = 0
 Constraint4_6_1:  x(6,0,1) + x(6,1,1) + x(6,2,1) + x(6,3,1) + x(6,4,1)
                   + x(6,5,1) + x(6,7,1) + x(6,8,1) + x(6,9,1) - x(10,0,1)
                   - x(10,1,1) - x(10,2,1) - x(10,3,1) - x(10,4,1) - x(10,5,1)
                   - x(10,7,1) - x(10,8,1) - x(10,9,1) - x(10,13,1)  = 0
 Constraint5_0_0:  x(0,1,0) + x(0,2,0) + x(0,3,0) + x(0,4,0) + x(0,5,0)
                   + x(0,6,0) + x(0,7,0) + x(0,8,0) + x(0,9,0) + x(0,10,0)
                   + x(0,13,0) - x(1,0,0) - x(2,0,0) - x(3,0,0) - x(4,0,0)
                   - x(5,0,0) - x(6,0,0) - x(7,0,0) - x(8,0,0) - x(9,0,0)
                   - x(10,0,0) - x(11,0,0) - x(12,0,0)  = 0
 Constraint5_0_1:  x(0,1,1) + x(0,2,1) + x(0,3,1) + x(0,4,1) + x(0,5,1)
                   + x(0,6,1) + x(0,7,1) + x(0,8,1) + x(0,9,1) + x(0,10,1)
                   + x(0,13,1) - x(1,0,1) - x(2,0,1) - x(3,0,1) - x(4,0,1)
                   - x(5,0,1) - x(6,0,1) - x(7,0,1) - x(8,0,1) - x(9,0,1)
                   - x(10,0,1) - x(11,0,1) - x(12,0,1)  = 0
 Constraint5_1_0:  - x(0,1,0) + x(1,0,0) + x(1,2,0) + x(1,3,0) + x(1,4,0)
                   + x(1,5,0) + x(1,6,0) + x(1,7,0) + x(1,8,0) + x(1,9,0)
                   + x(1,10,0) + x(1,13,0) - x(2,1,0) - x(3,1,0) - x(4,1,0)
                   - x(5,1,0) - x(6,1,0) - x(7,1,0) - x(8,1,0) - x(9,1,0)
                   - x(10,1,0) - x(11,1,0) - x(12,1,0)  = 0
 Constraint5_1_1:  - x(0,1,1) + x(1,0,1) + x(1,2,1) + x(1,3,1) + x(1,4,1)
                   + x(1,5,1) + x(1,6,1) + x(1,7,1) + x(1,8,1) + x(1,9,1)
                   + x(1,10,1) + x(1,13,1) - x(2,1,1) - x(3,1,1) - x(4,1,1)
                   - x(5,1,1) - x(6,1,1) - x(7,1,1) - x(8,1,1) - x(9,1,1)
                   - x(10,1,1) - x(11,1,1) - x(12,1,1)  = 0
 Constraint5_2_0:  - x(0,2,0) - x(1,2,0) + x(2,0,0) + x(2,1,0) + x(2,3,0)
                   + x(2,4,0) + x(2,5,0) + x(2,6,0) + x(2,7,0) + x(2,8,0)
                   + x(2,9,0) + x(2,10,0) + x(2,13,0) - x(3,2,0) - x(4,2,0)
                   - x(5,2,0) - x(6,2,0) - x(7,2,0) - x(8,2,0) - x(9,2,0)
                   - x(10,2,0) - x(11,2,0) - x(12,2,0)  = 0
 Constraint5_2_1:  - x(0,2,1) - x(1,2,1) + x(2,0,1) + x(2,1,1) + x(2,3,1)
                   + x(2,4,1) + x(2,5,1) + x(2,6,1) + x(2,7,1) + x(2,8,1)
                   + x(2,9,1) + x(2,10,1) + x(2,13,1) - x(3,2,1) - x(4,2,1)
                   - x(5,2,1) - x(6,2,1) - x(7,2,1) - x(8,2,1) - x(9,2,1)
                   - x(10,2,1) - x(11,2,1) - x(12,2,1)  = 0
 Constraint5_3_0:  - x(0,3,0) - x(1,3,0) - x(2,3,0) + x(3,0,0) + x(3,1,0)
                   + x(3,2,0) + x(3,4,0) + x(3,5,0) + x(3,6,0) + x(3,8,0)
                   + x(3,9,0) + x(3,10,0) - x(4,3,0) - x(5,3,0) - x(6,3,0)
                   - x(8,3,0) - x(9,3,0) - x(10,3,0) - x(11,3,0) - x(12,3,0)
                    = 0
 Constraint5_3_1:  - x(0,3,1) - x(1,3,1) - x(2,3,1) + x(3,0,1) + x(3,1,1)
                   + x(3,2,1) + x(3,4,1) + x(3,5,1) + x(3,6,1) + x(3,8,1)
                   + x(3,9,1) + x(3,10,1) - x(4,3,1) - x(5,3,1) - x(6,3,1)
                   - x(8,3,1) - x(9,3,1) - x(10,3,1) - x(11,3,1) - x(12,3,1)
                    = 0
 Constraint5_4_0:  - x(0,4,0) - x(1,4,0) - x(2,4,0) - x(3,4,0) + x(4,0,0)
                   + x(4,1,0) + x(4,2,0) + x(4,3,0) + x(4,5,0) + x(4,6,0)
                   + x(4,7,0) + x(4,9,0) + x(4,10,0) - x(5,4,0) - x(6,4,0)
                   - x(7,4,0) - x(9,4,0) - x(10,4,0) - x(11,4,0) - x(12,4,0)
                    = 0
 Constraint5_4_1:  - x(0,4,1) - x(1,4,1) - x(2,4,1) - x(3,4,1) + x(4,0,1)
                   + x(4,1,1) + x(4,2,1) + x(4,3,1) + x(4,5,1) + x(4,6,1)
                   + x(4,7,1) + x(4,9,1) + x(4,10,1) - x(5,4,1) - x(6,4,1)
                   - x(7,4,1) - x(9,4,1) - x(10,4,1) - x(11,4,1) - x(12,4,1)
                    = 0
 Constraint5_5_0:  - x(0,5,0) - x(1,5,0) - x(2,5,0) - x(3,5,0) - x(4,5,0)
                   + x(5,0,0) + x(5,1,0) + x(5,2,0) + x(5,3,0) + x(5,4,0)
                   + x(5,6,0) + x(5,7,0) + x(5,8,0) + x(5,10,0) - x(6,5,0)
                   - x(7,5,0) - x(8,5,0) - x(10,5,0) - x(11,5,0) - x(12,5,0)
                    = 0
 Constraint5_5_1:  - x(0,5,1) - x(1,5,1) - x(2,5,1) - x(3,5,1) - x(4,5,1)
                   + x(5,0,1) + x(5,1,1) + x(5,2,1) + x(5,3,1) + x(5,4,1)
                   + x(5,6,1) + x(5,7,1) + x(5,8,1) + x(5,10,1) - x(6,5,1)
                   - x(7,5,1) - x(8,5,1) - x(10,5,1) - x(11,5,1) - x(12,5,1)
                    = 0
 Constraint5_6_0:  - x(0,6,0) - x(1,6,0) - x(2,6,0) - x(3,6,0) - x(4,6,0)
                   - x(5,6,0) + x(6,0,0) + x(6,1,0) + x(6,2,0) + x(6,3,0)
                   + x(6,4,0) + x(6,5,0) + x(6,7,0) + x(6,8,0) + x(6,9,0)
                   - x(7,6,0) - x(8,6,0) - x(9,6,0) - x(11,6,0) - x(12,6,0)
                    = 0
 Constraint5_6_1:  - x(0,6,1) - x(1,6,1) - x(2,6,1) - x(3,6,1) - x(4,6,1)
                   - x(5,6,1) + x(6,0,1) + x(6,1,1) + x(6,2,1) + x(6,3,1)
                   + x(6,4,1) + x(6,5,1) + x(6,7,1) + x(6,8,1) + x(6,9,1)
                   - x(7,6,1) - x(8,6,1) - x(9,6,1) - x(11,6,1) - x(12,6,1)
                    = 0
 Constraint5_7_0:  - x(0,7,0) - x(1,7,0) - x(2,7,0) - x(4,7,0) - x(5,7,0)
                   - x(6,7,0) + x(7,0,0) + x(7,1,0) + x(7,2,0) + x(7,4,0)
                   + x(7,5,0) + x(7,6,0) + x(7,8,0) + x(7,9,0) + x(7,10,0)
                   + x(7,13,0) - x(8,7,0) - x(9,7,0) - x(10,7,0)  = 0
 Constraint5_7_1:  - x(0,7,1) - x(1,7,1) - x(2,7,1) - x(4,7,1) - x(5,7,1)
                   - x(6,7,1) + x(7,0,1) + x(7,1,1) + x(7,2,1) + x(7,4,1)
                   + x(7,5,1) + x(7,6,1) + x(7,8,1) + x(7,9,1) + x(7,10,1)
                   + x(7,13,1) - x(8,7,1) - x(9,7,1) - x(10,7,1)  = 0
 Constraint5_8_0:  - x(0,8,0) - x(1,8,0) - x(2,8,0) - x(3,8,0) - x(5,8,0)
                   - x(6,8,0) - x(7,8,0) + x(8,0,0) + x(8,1,0) + x(8,2,0)
                   + x(8,3,0) + x(8,5,0) + x(8,6,0) + x(8,7,0) + x(8,9,0)
                   + x(8,10,0) + x(8,13,0) - x(9,8,0) - x(10,8,0)  = 0
 Constraint5_8_1:  - x(0,8,1) - x(1,8,1) - x(2,8,1) - x(3,8,1) - x(5,8,1)
                   - x(6,8,1) - x(7,8,1) + x(8,0,1) + x(8,1,1) + x(8,2,1)
                   + x(8,3,1) + x(8,5,1) + x(8,6,1) + x(8,7,1) + x(8,9,1)
                   + x(8,10,1) + x(8,13,1) - x(9,8,1) - x(10,8,1)  = 0
 Constraint5_9_0:  - x(0,9,0) - x(1,9,0) - x(2,9,0) - x(3,9,0) - x(4,9,0)
                   - x(6,9,0) - x(7,9,0) - x(8,9,0) + x(9,0,0) + x(9,1,0)
                   + x(9,2,0) + x(9,3,0) + x(9,4,0) + x(9,6,0) + x(9,7,0)
                   + x(9,8,0) + x(9,10,0) + x(9,13,0) - x(10,9,0)  = 0
 Constraint5_9_1:  - x(0,9,1) - x(1,9,1) - x(2,9,1) - x(3,9,1) - x(4,9,1)
                   - x(6,9,1) - x(7,9,1) - x(8,9,1) + x(9,0,1) + x(9,1,1)
                   + x(9,2,1) + x(9,3,1) + x(9,4,1) + x(9,6,1) + x(9,7,1)
                   + x(9,8,1) + x(9,10,1) + x(9,13,1) - x(10,9,1)  = 0
 Constraint5_10_0: - x(0,10,0) - x(1,10,0) - x(2,10,0) - x(3,10,0) - x(4,10,0)
                   - x(5,10,0) - x(7,10,0) - x(8,10,0) - x(9,10,0) + x(10,0,0)
                   + x(10,1,0) + x(10,2,0) + x(10,3,0) + x(10,4,0) + x(10,5,0)
                   + x(10,7,0) + x(10,8,0) + x(10,9,0) + x(10,13,0)  = 0
 Constraint5_10_1: - x(0,10,1) - x(1,10,1) - x(2,10,1) - x(3,10,1) - x(4,10,1)
                   - x(5,10,1) - x(7,10,1) - x(8,10,1) - x(9,10,1) + x(10,0,1)
                   + x(10,1,1) + x(10,2,1) + x(10,3,1) + x(10,4,1) + x(10,5,1)
                   + x(10,7,1) + x(10,8,1) + x(10,9,1) + x(10,13,1)  = 0
 Constraint6_0:    x(11,0,0) + x(11,1,0) + x(11,2,0) + x(11,3,0) + x(11,4,0)
                   + x(11,5,0) + x(11,6,0) + x(11,13,0) - y(11,0)  = 0
 Constraint7_0:    y(11,0)  = 1
 Constraint6_1:    x(12,0,1) + x(12,1,1) + x(12,2,1) + x(12,3,1) + x(12,4,1)
                   + x(12,5,1) + x(12,6,1) + x(12,13,1) - y(12,1)  = 0
 Constraint7_1:    y(12,1)  = 1
 Constraint8_0:    x(0,13,0) + x(1,13,0) + x(2,13,0) + x(7,13,0) + x(8,13,0)
                   + x(9,13,0) + x(10,13,0) + x(11,13,0) + x(12,13,0) - y(13,0)
                    = 0
 Constraint9_0:    y(13,0)  = 1
 Constraint8_1:    x(0,13,1) + x(1,13,1) + x(2,13,1) + x(7,13,1) + x(8,13,1)
                   + x(9,13,1) + x(10,13,1) + x(11,13,1) + x(12,13,1) - y(13,1)
                    = 0
 Constraint9_1:    y(13,1)  = 1
 Constraint10_0:   b(0) <= 1.15
 Constraint11_0:   b(0) >= 0.9
 Constraint10_1:   b(1) <= 0.483333333333333
 Constraint11_1:   b(1) >= 0.233333333333333
 Constraint10_2:   b(2) <= 3.03333333333333
 Constraint11_2:   b(2) >= 2.78333333333333
 Constraint12_0:   - 24 y(0,0) - 24 y(0,1) + b(0) <= 0
 Constraint12_1:   - 24 y(1,0) - 24 y(1,1) + b(1) <= 0
 Constraint12_2:   - 24 y(2,0) - 24 y(2,1) + b(2) <= 0
 Constraint12_3:   - 24 y(3,0) - 24 y(3,1) + b(3) <= 0
 Constraint12_4:   - 24 y(4,0) - 24 y(4,1) + b(4) <= 0
 Constraint12_5:   - 24 y(5,0) - 24 y(5,1) + b(5) <= 0
 Constraint12_6:   - 24 y(6,0) - 24 y(6,1) + b(6) <= 0
 Constraint12_7:   - 24 y(7,0) - 24 y(7,1) + b(7) <= 0
 Constraint12_8:   - 24 y(8,0) - 24 y(8,1) + b(8) <= 0
 Constraint12_9:   - 24 y(9,0) - 24 y(9,1) + b(9) <= 0
 Constraint12_10:  - 24 y(10,0) - 24 y(10,1) + b(10) <= 0
 Constraint12_11:  - 24 y(11,0) - 24 y(11,1) + b(11) <= 0
 Constraint12_12:  - 24 y(12,0) - 24 y(12,1) + b(12) <= 0
 Constraint12_13:  - 24 y(13,0) - 24 y(13,1) + b(13) <= 0
Bounds
 0 <= x(0,1,0) <= 1
 0 <= x(0,1,1) <= 1
 0 <= x(0,2,0) <= 1
 0 <= x(0,2,1) <= 1
 0 <= x(0,3,0) <= 1
 0 <= x(0,3,1) <= 1
 0 <= x(0,4,0) <= 1
 0 <= x(0,4,1) <= 1
 0 <= x(0,5,0) <= 1
 0 <= x(0,5,1) <= 1
 0 <= x(0,6,0) <= 1
 0 <= x(0,6,1) <= 1
 0 <= x(0,7,0) <= 1
 0 <= x(0,7,1) <= 1
 0 <= x(0,8,0) <= 1
 0 <= x(0,8,1) <= 1
 0 <= x(0,9,0) <= 1
 0 <= x(0,9,1) <= 1
 0 <= x(0,10,0) <= 1
 0 <= x(0,10,1) <= 1
 0 <= x(0,13,0) <= 1
 0 <= x(0,13,1) <= 1
 0 <= x(1,0,0) <= 1
 0 <= x(1,0,1) <= 1
 0 <= x(1,2,0) <= 1
 0 <= x(1,2,1) <= 1
 0 <= x(1,3,0) <= 1
 0 <= x(1,3,1) <= 1
 0 <= x(1,4,0) <= 1
 0 <= x(1,4,1) <= 1
 0 <= x(1,5,0) <= 1
 0 <= x(1,5,1) <= 1
 0 <= x(1,6,0) <= 1
 0 <= x(1,6,1) <= 1
 0 <= x(1,7,0) <= 1
 0 <= x(1,7,1) <= 1
 0 <= x(1,8,0) <= 1
 0 <= x(1,8,1) <= 1
 0 <= x(1,9,0) <= 1
 0 <= x(1,9,1) <= 1
 0 <= x(1,10,0) <= 1
 0 <= x(1,10,1) <= 1
 0 <= x(1,13,0) <= 1
 0 <= x(1,13,1) <= 1
 0 <= x(2,0,0) <= 1
 0 <= x(2,0,1) <= 1
 0 <= x(2,1,0) <= 1
 0 <= x(2,1,1) <= 1
 0 <= x(2,3,0) <= 1
 0 <= x(2,3,1) <= 1
 0 <= x(2,4,0) <= 1
 0 <= x(2,4,1) <= 1
 0 <= x(2,5,0) <= 1
 0 <= x(2,5,1) <= 1
 0 <= x(2,6,0) <= 1
 0 <= x(2,6,1) <= 1
 0 <= x(2,7,0) <= 1
 0 <= x(2,7,1) <= 1
 0 <= x(2,8,0) <= 1
 0 <= x(2,8,1) <= 1
 0 <= x(2,9,0) <= 1
 0 <= x(2,9,1) <= 1
 0 <= x(2,10,0) <= 1
 0 <= x(2,10,1) <= 1
 0 <= x(2,13,0) <= 1
 0 <= x(2,13,1) <= 1
 0 <= x(3,0,0) <= 1
 0 <= x(3,0,1) <= 1
 0 <= x(3,1,0) <= 1
 0 <= x(3,1,1) <= 1
 0 <= x(3,2,0) <= 1
 0 <= x(3,2,1) <= 1
 0 <= x(3,4,0) <= 1
 0 <= x(3,4,1) <= 1
 0 <= x(3,5,0) <= 1
 0 <= x(3,5,1) <= 1
 0 <= x(3,6,0) <= 1
 0 <= x(3,6,1) <= 1
 0 <= x(3,8,0) <= 1
 0 <= x(3,8,1) <= 1
 0 <= x(3,9,0) <= 1
 0 <= x(3,9,1) <= 1
 0 <= x(3,10,0) <= 1
 0 <= x(3,10,1) <= 1
 0 <= x(4,0,0) <= 1
 0 <= x(4,0,1) <= 1
 0 <= x(4,1,0) <= 1
 0 <= x(4,1,1) <= 1
 0 <= x(4,2,0) <= 1
 0 <= x(4,2,1) <= 1
 0 <= x(4,3,0) <= 1
 0 <= x(4,3,1) <= 1
 0 <= x(4,5,0) <= 1
 0 <= x(4,5,1) <= 1
 0 <= x(4,6,0) <= 1
 0 <= x(4,6,1) <= 1
 0 <= x(4,7,0) <= 1
 0 <= x(4,7,1) <= 1
 0 <= x(4,9,0) <= 1
 0 <= x(4,9,1) <= 1
 0 <= x(4,10,0) <= 1
 0 <= x(4,10,1) <= 1
 0 <= x(5,0,0) <= 1
 0 <= x(5,0,1) <= 1
 0 <= x(5,1,0) <= 1
 0 <= x(5,1,1) <= 1
 0 <= x(5,2,0) <= 1
 0 <= x(5,2,1) <= 1
 0 <= x(5,3,0) <= 1
 0 <= x(5,3,1) <= 1
 0 <= x(5,4,0) <= 1
 0 <= x(5,4,1) <= 1
 0 <= x(5,6,0) <= 1
 0 <= x(5,6,1) <= 1
 0 <= x(5,7,0) <= 1
 0 <= x(5,7,1) <= 1
 0 <= x(5,8,0) <= 1
 0 <= x(5,8,1) <= 1
 0 <= x(5,10,0) <= 1
 0 <= x(5,10,1) <= 1
 0 <= x(6,0,0) <= 1
 0 <= x(6,0,1) <= 1
 0 <= x(6,1,0) <= 1
 0 <= x(6,1,1) <= 1
 0 <= x(6,2,0) <= 1
 0 <= x(6,2,1) <= 1
 0 <= x(6,3,0) <= 1
 0 <= x(6,3,1) <= 1
 0 <= x(6,4,0) <= 1
 0 <= x(6,4,1) <= 1
 0 <= x(6,5,0) <= 1
 0 <= x(6,5,1) <= 1
 0 <= x(6,7,0) <= 1
 0 <= x(6,7,1) <= 1
 0 <= x(6,8,0) <= 1
 0 <= x(6,8,1) <= 1
 0 <= x(6,9,0) <= 1
 0 <= x(6,9,1) <= 1
 0 <= x(7,0,0) <= 1
 0 <= x(7,0,1) <= 1
 0 <= x(7,1,0) <= 1
 0 <= x(7,1,1) <= 1
 0 <= x(7,2,0) <= 1
 0 <= x(7,2,1) <= 1
 0 <= x(7,4,0) <= 1
 0 <= x(7,4,1) <= 1
 0 <= x(7,5,0) <= 1
 0 <= x(7,5,1) <= 1
 0 <= x(7,6,0) <= 1
 0 <= x(7,6,1) <= 1
 0 <= x(7,8,0) <= 1
 0 <= x(7,8,1) <= 1
 0 <= x(7,9,0) <= 1
 0 <= x(7,9,1) <= 1
 0 <= x(7,10,0) <= 1
 0 <= x(7,10,1) <= 1
 0 <= x(7,13,0) <= 1
 0 <= x(7,13,1) <= 1
 0 <= x(8,0,0) <= 1
 0 <= x(8,0,1) <= 1
 0 <= x(8,1,0) <= 1
 0 <= x(8,1,1) <= 1
 0 <= x(8,2,0) <= 1
 0 <= x(8,2,1) <= 1
 0 <= x(8,3,0) <= 1
 0 <= x(8,3,1) <= 1
 0 <= x(8,5,0) <= 1
 0 <= x(8,5,1) <= 1
 0 <= x(8,6,0) <= 1
 0 <= x(8,6,1) <= 1
 0 <= x(8,7,0) <= 1
 0 <= x(8,7,1) <= 1
 0 <= x(8,9,0) <= 1
 0 <= x(8,9,1) <= 1
 0 <= x(8,10,0) <= 1
 0 <= x(8,10,1) <= 1
 0 <= x(8,13,0) <= 1
 0 <= x(8,13,1) <= 1
 0 <= x(9,0,0) <= 1
 0 <= x(9,0,1) <= 1
 0 <= x(9,1,0) <= 1
 0 <= x(9,1,1) <= 1
 0 <= x(9,2,0) <= 1
 0 <= x(9,2,1) <= 1
 0 <= x(9,3,0) <= 1
 0 <= x(9,3,1) <= 1
 0 <= x(9,4,0) <= 1
 0 <= x(9,4,1) <= 1
 0 <= x(9,6,0) <= 1
 0 <= x(9,6,1) <= 1
 0 <= x(9,7,0) <= 1
 0 <= x(9,7,1) <= 1
 0 <= x(9,8,0) <= 1
 0 <= x(9,8,1) <= 1
 0 <= x(9,10,0) <= 1
 0 <= x(9,10,1) <= 1
 0 <= x(9,13,0) <= 1
 0 <= x(9,13,1) <= 1
 0 <= x(10,0,0) <= 1
 0 <= x(10,0,1) <= 1
 0 <= x(10,1,0) <= 1
 0 <= x(10,1,1) <= 1
 0 <= x(10,2,0) <= 1
 0 <= x(10,2,1) <= 1
 0 <= x(10,3,0) <= 1
 0 <= x(10,3,1) <= 1
 0 <= x(10,4,0) <= 1
 0 <= x(10,4,1) <= 1
 0 <= x(10,5,0) <= 1
 0 <= x(10,5,1) <= 1
 0 <= x(10,7,0) <= 1
 0 <= x(10,7,1) <= 1
 0 <= x(10,8,0) <= 1
 0 <= x(10,8,1) <= 1
 0 <= x(10,9,0) <= 1
 0 <= x(10,9,1) <= 1
 0 <= x(10,13,0) <= 1
 0 <= x(10,13,1) <= 1
 0 <= x(11,0,0) <= 1
 0 <= x(11,0,1) <= 1
 0 <= x(11,1,0) <= 1
 0 <= x(11,1,1) <= 1
 0 <= x(11,2,0) <= 1
 0 <= x(11,2,1) <= 1
 0 <= x(11,3,0) <= 1
 0 <= x(11,3,1) <= 1
 0 <= x(11,4,0) <= 1
 0 <= x(11,4,1) <= 1
 0 <= x(11,5,0) <= 1
 0 <= x(11,5,1) <= 1
 0 <= x(11,6,0) <= 1
 0 <= x(11,6,1) <= 1
 0 <= x(11,13,0) <= 1
 0 <= x(11,13,1) <= 1
 0 <= x(12,0,0) <= 1
 0 <= x(12,0,1) <= 1
 0 <= x(12,1,0) <= 1
 0 <= x(12,1,1) <= 1
 0 <= x(12,2,0) <= 1
 0 <= x(12,2,1) <= 1
 0 <= x(12,3,0) <= 1
 0 <= x(12,3,1) <= 1
 0 <= x(12,4,0) <= 1
 0 <= x(12,4,1) <= 1
 0 <= x(12,5,0) <= 1
 0 <= x(12,5,1) <= 1
 0 <= x(12,6,0) <= 1
 0 <= x(12,6,1) <= 1
 0 <= x(12,13,0) <= 1
 0 <= x(12,13,1) <= 1
 0 <= y(0,0) <= 1
 0 <= y(0,1) <= 1
 0 <= y(1,0) <= 1
 0 <= y(1,1) <= 1
 0 <= y(2,0) <= 1
 0 <= y(2,1) <= 1
 0 <= y(3,0) <= 1
 0 <= y(3,1) <= 1
 0 <= y(4,0) <= 1
 0 <= y(4,1) <= 1
 0 <= y(5,0) <= 1
 0 <= y(5,1) <= 1
 0 <= y(6,0) <= 1
 0 <= y(6,1) <= 1
 0 <= y(7,0) <= 1
 0 <= y(7,1) <= 1
 0 <= y(8,0) <= 1
 0 <= y(8,1) <= 1
 0 <= y(9,0) <= 1
 0 <= y(9,1) <= 1
 0 <= y(10,0) <= 1
 0 <= y(10,1) <= 1
 0 <= y(11,0) <= 1
 0 <= y(11,1) <= 1
 0 <= y(12,0) <= 1
 0 <= y(12,1) <= 1
 0 <= y(13,0) <= 1
 0 <= y(13,1) <= 1
 0 <= b(0) <= 12
 0 <= b(1) <= 12
 0 <= b(2) <= 12
 0 <= b(3) <= 12
 0 <= b(4) <= 12
 0 <= b(5) <= 12
 0 <= b(6) <= 12
 0 <= b(7) <= 12
 0 <= b(8) <= 12
 0 <= b(9) <= 12
 0 <= b(10) <= 12
 0 <= b(11) <= 12
 0 <= b(12) <= 12
 0 <= b(13) <= 12
 0 <= w(0) <= 5
 0 <= w(1) <= 5
 0 <= w(2) <= 5
 0 <= w(3) <= 5
 0 <= w(4) <= 5
 0 <= w(5) <= 5
 0 <= w(6) <= 5
 0 <= w(7) <= 5
 0 <= w(8) <= 5
 0 <= w(9) <= 5
 0 <= w(10) <= 5
 0 <= w(11) <= 5
 0 <= w(12) <= 5
 0 <= w(13) <= 5
Binaries
 x(0,1,0)  x(0,1,1)  x(0,2,0)  x(0,2,1)  x(0,3,0)  x(0,3,1)  x(0,4,0) 
 x(0,4,1)  x(0,5,0)  x(0,5,1)  x(0,6,0)  x(0,6,1)  x(0,7,0)  x(0,7,1) 
 x(0,8,0)  x(0,8,1)  x(0,9,0)  x(0,9,1)  x(0,10,0)  x(0,10,1)  x(0,13,0) 
 x(0,13,1)  x(1,0,0)  x(1,0,1)  x(1,2,0)  x(1,2,1)  x(1,3,0)  x(1,3,1) 
 x(1,4,0)  x(1,4,1)  x(1,5,0)  x(1,5,1)  x(1,6,0)  x(1,6,1)  x(1,7,0) 
 x(1,7,1)  x(1,8,0)  x(1,8,1)  x(1,9,0)  x(1,9,1)  x(1,10,0)  x(1,10,1) 
 x(1,13,0)  x(1,13,1)  x(2,0,0)  x(2,0,1)  x(2,1,0)  x(2,1,1)  x(2,3,0) 
 x(2,3,1)  x(2,4,0)  x(2,4,1)  x(2,5,0)  x(2,5,1)  x(2,6,0)  x(2,6,1) 
 x(2,7,0)  x(2,7,1)  x(2,8,0)  x(2,8,1)  x(2,9,0)  x(2,9,1)  x(2,10,0) 
 x(2,10,1)  x(2,13,0)  x(2,13,1)  x(3,0,0)  x(3,0,1)  x(3,1,0)  x(3,1,1) 
 x(3,2,0)  x(3,2,1)  x(3,4,0)  x(3,4,1)  x(3,5,0)  x(3,5,1)  x(3,6,0) 
 x(3,6,1)  x(3,8,0)  x(3,8,1)  x(3,9,0)  x(3,9,1)  x(3,10,0)  x(3,10,1) 
 x(4,0,0)  x(4,0,1)  x(4,1,0)  x(4,1,1)  x(4,2,0)  x(4,2,1)  x(4,3,0) 
 x(4,3,1)  x(4,5,0)  x(4,5,1)  x(4,6,0)  x(4,6,1)  x(4,7,0)  x(4,7,1) 
 x(4,9,0)  x(4,9,1)  x(4,10,0)  x(4,10,1)  x(5,0,0)  x(5,0,1)  x(5,1,0) 
 x(5,1,1)  x(5,2,0)  x(5,2,1)  x(5,3,0)  x(5,3,1)  x(5,4,0)  x(5,4,1) 
 x(5,6,0)  x(5,6,1)  x(5,7,0)  x(5,7,1)  x(5,8,0)  x(5,8,1)  x(5,10,0) 
 x(5,10,1)  x(6,0,0)  x(6,0,1)  x(6,1,0)  x(6,1,1)  x(6,2,0)  x(6,2,1) 
 x(6,3,0)  x(6,3,1)  x(6,4,0)  x(6,4,1)  x(6,5,0)  x(6,5,1)  x(6,7,0) 
 x(6,7,1)  x(6,8,0)  x(6,8,1)  x(6,9,0)  x(6,9,1)  x(7,0,0)  x(7,0,1) 
 x(7,1,0)  x(7,1,1)  x(7,2,0)  x(7,2,1)  x(7,4,0)  x(7,4,1)  x(7,5,0) 
 x(7,5,1)  x(7,6,0)  x(7,6,1)  x(7,8,0)  x(7,8,1)  x(7,9,0)  x(7,9,1) 
 x(7,10,0)  x(7,10,1)  x(7,13,0)  x(7,13,1)  x(8,0,0)  x(8,0,1)  x(8,1,0) 
 x(8,1,1)  x(8,2,0)  x(8,2,1)  x(8,3,0)  x(8,3,1)  x(8,5,0)  x(8,5,1) 
 x(8,6,0)  x(8,6,1)  x(8,7,0)  x(8,7,1)  x(8,9,0)  x(8,9,1)  x(8,10,0) 
 x(8,10,1)  x(8,13,0)  x(8,13,1)  x(9,0,0)  x(9,0,1)  x(9,1,0)  x(9,1,1) 
 x(9,2,0)  x(9,2,1)  x(9,3,0)  x(9,3,1)  x(9,4,0)  x(9,4,1)  x(9,6,0) 
 x(9,6,1)  x(9,7,0)  x(9,7,1)  x(9,8,0)  x(9,8,1)  x(9,10,0)  x(9,10,1) 
 x(9,13,0)  x(9,13,1)  x(10,0,0)  x(10,0,1)  x(10,1,0)  x(10,1,1)  x(10,2,0) 
 x(10,2,1)  x(10,3,0)  x(10,3,1)  x(10,4,0)  x(10,4,1)  x(10,5,0)  x(10,5,1) 
 x(10,7,0)  x(10,7,1)  x(10,8,0)  x(10,8,1)  x(10,9,0)  x(10,9,1)  x(10,13,0) 
 x(10,13,1)  x(11,0,0)  x(11,0,1)  x(11,1,0)  x(11,1,1)  x(11,2,0)  x(11,2,1) 
 x(11,3,0)  x(11,3,1)  x(11,4,0)  x(11,4,1)  x(11,5,0)  x(11,5,1)  x(11,6,0) 
 x(11,6,1)  x(11,13,0)  x(11,13,1)  x(12,0,0)  x(12,0,1)  x(12,1,0)  x(12,1,1) 
 x(12,2,0)  x(12,2,1)  x(12,3,0)  x(12,3,1)  x(12,4,0)  x(12,4,1)  x(12,5,0) 
 x(12,5,1)  x(12,6,0)  x(12,6,1)  x(12,13,0)  x(12,13,1)  y(0,0)  y(0,1) 
 y(1,0)  y(1,1)  y(2,0)  y(2,1)  y(3,0)  y(3,1)  y(4,0)  y(4,1)  y(5,0) 
 y(5,1)  y(6,0)  y(6,1)  y(7,0)  y(7,1)  y(8,0)  y(8,1)  y(9,0)  y(9,1) 
 y(10,0)  y(10,1)  y(11,0)  y(11,1)  y(12,0)  y(12,1)  y(13,0)  y(13,1) 
End
